(set-info :smt-lib-version 2.6)
(set-logic QF_UFLRA)
(set-info :source |
MathSat group

|)
(set-info :category "random")
(set-info :status sat)
(declare-fun x0 () Real)
(declare-fun x1 () Real)
(declare-fun x2 () Real)
(declare-fun x3 () Real)
(declare-fun x4 () Real)
(declare-fun x5 () Real)
(declare-fun x6 () Real)
(declare-fun x7 () Real)
(declare-fun x8 () Real)
(declare-fun x9 () Real)
(declare-fun x10 () Real)
(declare-fun x11 () Real)
(declare-fun x12 () Real)
(declare-fun x13 () Real)
(declare-fun x14 () Real)
(declare-fun x15 () Real)
(declare-fun x16 () Real)
(declare-fun x17 () Real)
(declare-fun x18 () Real)
(declare-fun x19 () Real)
(declare-fun x20 () Real)
(declare-fun x21 () Real)
(declare-fun x22 () Real)
(declare-fun x23 () Real)
(declare-fun x24 () Real)
(declare-fun x25 () Real)
(declare-fun x26 () Real)
(declare-fun x27 () Real)
(declare-fun x28 () Real)
(declare-fun x29 () Real)
(declare-fun x30 () Real)
(declare-fun x31 () Real)
(declare-fun x32 () Real)
(declare-fun x33 () Real)
(declare-fun x34 () Real)
(declare-fun x35 () Real)
(declare-fun x36 () Real)
(declare-fun x37 () Real)
(declare-fun x38 () Real)
(declare-fun x39 () Real)
(declare-fun f0_1 (Real) Real)
(declare-fun f0_2 (Real Real) Real)
(declare-fun f0_3 (Real Real Real) Real)
(declare-fun f0_4 (Real Real Real Real) Real)
(declare-fun P0 () Bool)
(declare-fun P1 () Bool)
(declare-fun P2 () Bool)
(declare-fun P3 () Bool)
(declare-fun P4 () Bool)
(declare-fun P5 () Bool)
(declare-fun P6 () Bool)
(declare-fun P7 () Bool)
(declare-fun P8 () Bool)
(declare-fun P9 () Bool)
(declare-fun P10 () Bool)
(declare-fun P11 () Bool)
(declare-fun P12 () Bool)
(declare-fun P13 () Bool)
(declare-fun P14 () Bool)
(declare-fun P15 () Bool)
(declare-fun P16 () Bool)
(declare-fun P17 () Bool)
(declare-fun P18 () Bool)
(declare-fun P19 () Bool)
(declare-fun P20 () Bool)
(declare-fun P21 () Bool)
(declare-fun P22 () Bool)
(declare-fun P23 () Bool)
(declare-fun P24 () Bool)
(declare-fun P25 () Bool)
(declare-fun P26 () Bool)
(declare-fun P27 () Bool)
(declare-fun P28 () Bool)
(declare-fun P29 () Bool)
(declare-fun P30 () Bool)
(declare-fun P31 () Bool)
(declare-fun P32 () Bool)
(declare-fun P33 () Bool)
(declare-fun P34 () Bool)
(declare-fun P35 () Bool)
(declare-fun P36 () Bool)
(declare-fun P37 () Bool)
(declare-fun P38 () Bool)
(declare-fun P39 () Bool)
(assert (let ((?v_19 (< (+ (- (* 20 x37) (* 15 x20)) (* 52 x3)) 4)) (?v_98 (<= (- (+ (* 56 x16) (* 6 x2)) (* 5 x5)) 55)) (?v_71 (distinct (+ (- (* 45 x28) (* 12 x34)) (* 29 x28)) 45)) (?v_83 (* 42 x36)) (?v_131 (distinct (+ (- (* 31 x25) (* 51 x6)) (* 42 x11)) 37)) (?v_18 (<= (- (+ (* 16 x31) (* 7 x15)) (* 38 x10)) 12)) (?v_15 (f0_1 x26))) (let ((?v_62 (distinct ?v_15 (f0_2 x19 x5))) (?v_6 (= (f0_1 x4) (f0_1 x20))) (?v_117 (distinct (f0_2 x16 x23) (f0_1 x32))) (?v_9 (= (f0_1 x31) x1)) (?v_69 (= (f0_2 x38 x25) x13)) (?v_88 (= (f0_1 x23) x14)) (?v_27 (distinct (f0_1 x25) (f0_1 x14))) (?v_86 (= (f0_2 x34 x2) (f0_2 x21 x4))) (?v_173 (distinct (f0_2 x37 x9) (f0_2 x33 x12))) (?v_56 (= (f0_2 x17 x32) (f0_2 x11 x14))) (?v_118 (= (f0_2 x22 x13) (f0_2 x14 x17))) (?v_92 (= (f0_2 x8 x1) (f0_1 x38))) (?v_28 (= (f0_2 x2 x13) (f0_2 x10 x35))) (?v_32 (distinct x6 (f0_2 x35 x10))) (?v_81 (distinct (f0_2 x8 x20) (f0_2 x10 x21))) (?v_68 (distinct x32 x21)) (?v_21 (= (f0_2 x26 x33) x36)) (?v_22 (f0_1 x21))) (let ((?v_58 (distinct ?v_22 x2)) (?v_127 (= x16 (f0_2 x24 x32))) (?v_134 (= x3 (f0_1 x37))) (?v_13 (distinct x34 (f0_2 x38 x5))) (?v_43 (= (f0_1 x12) x31)) (?v_180 (= x4 x18)) (?v_3 (= x32 x5)) (?v_11 (distinct (f0_2 x38 x34) x16)) (?v_67 (f0_2 x2 x8))) (let ((?v_30 (= x2 ?v_67)) (?v_38 (distinct (f0_2 x14 x11) x38)) (?v_59 (= (f0_1 x16) (f0_2 x34 x19))) (?v_149 (= (f0_2 x14 x4) (f0_2 x38 x3))) (?v_29 (= (f0_2 x3 x5) (f0_2 x23 x1))) (?v_25 (= x29 ?v_22)) (?v_55 (= ?v_15 (f0_2 x15 x18))) (?v_89 (distinct (f0_1 x10) ?v_67)) (?v_82 (distinct x17 (f0_2 x34 x9))) (?v_140 (= x31 (f0_1 x13))) (?v_64 (= (f0_2 x36 x12) x26)) (?v_45 (distinct x23 (f0_2 x35 x15))) (?v_175 (= x8 x4)) (?v_164 (distinct (f0_1 x6) (f0_1 x30))) (?v_190 (distinct (f0_2 x37 x11) (f0_1 x22)))) (let ((?v_130 (not ?v_82)) (?v_33 (not P34)) (?v_79 (not P5)) (?v_115 (not P2)) (?v_20 (not ?v_173)) (?v_162 (not ?v_190)) (?v_2 (not ?v_117)) (?v_94 (not P10)) (?v_65 (not ?v_164)) (?v_53 (not P20)) (?v_14 (not ?v_6)) (?v_26 (not ?v_81)) (?v_185 (not ?v_19)) (?v_74 (not ?v_98)) (?v_97 (not ?v_59)) (?v_12 (not P15)) (?v_23 (not ?v_3)) (?v_48 (not ?v_9)) (?v_125 (not ?v_62)) (?v_36 (not P25)) (?v_135 (not ?v_18)) (?v_96 (not ?v_30)) (?v_57 (not ?v_11)) (?v_42 (not P35)) (?v_128 (not ?v_38)) (?v_154 (not P19)) (?v_101 (not ?v_55)) (?v_104 (not ?v_71)) (?v_54 (not P24)) (?v_44 (not P8)) (?v_77 (not P11)) (?v_141 (not P22)) (?v_132 (not ?v_64)) (?v_155 (not ?v_25)) (?v_50 (not ?v_27)) (?v_116 (not ?v_13)) (?v_41 (not ?v_28)) (?v_72 (not ?v_29)) (?v_60 (not ?v_32)) (?v_156 (not P18)) (?v_34 (not ?v_134)) (?v_78 (not P31)) (?v_150 (not ?v_43)) (?v_119 (not ?v_21)) (?v_49 (not P4)) (?v_181 (not P27)) (?v_95 (not P14)) (?v_172 (not ?v_69)) (?v_159 (not P3)) (?v_120 (not P6)) (?v_146 (not P29)) (?v_106 (not P38)) (?v_165 (not P0)) (?v_170 (not ?v_88)) (?v_102 (not ?v_92)) (?v_124 (not P39)) (?v_183 (not ?v_89)) (?v_137 (not P16)) (?v_139 (not P12)) (?v_163 (not P21)) (?v_167 (not ?v_45)) (?v_144 (not P17)) (?v_148 (not P37)) (?v_151 (not P32)) (?v_143 (not P23)) (?v_187 (not ?v_118)) (?v_145 (not P26)) (?v_147 (not P13)) (?v_171 (not P33)) (?v_160 (not ?v_58)) (?v_168 (not ?v_149)) (?v_158 (not P7)) (?v_192 (not ?v_127)) (?v_176 (not ?v_131)) (?v_199 (or P2 P37)) (?v_194 (not P9)) (?v_178 (not ?v_68)) (?v_196 (not P36)) (?v_182 (not ?v_180)) (?v_191 (not ?v_56)) (?v_189 (not ?v_86)) (?v_202 (not P28)) (?v_195 (< (+ (* 56 x3) (* 47 x10) (* 18 x5)) 39))) (let ((?v_75 (not ?v_195)) (?v_46 (< (+ (- x22 (* 27 x18)) (* 13 x10)) 24))) (let ((?v_84 (not ?v_46)) (?v_70 (<= (- (* 31 x22) (* 47 x9)) 22))) (let ((?v_133 (not ?v_70)) (?v_1 (distinct (+ (* 4 x20) (* 53 x31) (* 31 x5)) (- 39)))) (let ((?v_153 (not ?v_1)) (?v_5 (<= (- (+ (* (- 11) x11) (* 18 x15)) (* 28 x37)) 25))) (let ((?v_8 (not ?v_5)) (?v_201 (<= (+ (- (* (- 27) x35) (* 54 x17)) (* 44 x34)) 20))) (let ((?v_0 (not ?v_201)) (?v_4 (< (+ (- (* (- 38) x1) (* 22 x36)) ?v_83) (- 24)))) (let ((?v_108 (not ?v_4)) (?v_7 (= (- (- (* 29 x26) (* 32 x24)) (* 45 x14)) (- 27))) (?v_31 (< (- (+ (* (- 25) x31) (* 26 x35)) (* 53 x25)) 3)) (?v_114 (= (+ (* (- 23) x38) (* 53 x4) (* 53 x15)) 56))) (let ((?v_61 (not ?v_114)) (?v_10 (= (- (- (* (- 51) x21) (* 39 x23)) (* 6 x13)) 31)) (?v_51 (= (+ (- (* (- 33) x28) (* 31 x35)) (* 52 x20)) 26))) (let ((?v_80 (not ?v_51)) (?v_122 (distinct (+ (* 21 x29) (* 15 x29) (* 24 x19)) (- 40))) (?v_105 (< (- (- (* 17 x2) (* 18 x35)) (* 35 x15)) (- 38))) (?v_198 (not ?v_7)) (?v_17 (< (+ (- (* 49 x22) (* 17 x23)) (* 12 x4)) (- 57)))) (let ((?v_169 (not ?v_17)) (?v_76 (= (- (- (* 39 x17) (* 12 x26)) (* 19 x16)) (- 36))) (?v_16 (= (+ (- (* (- 3) x12) (* 55 x18)) (* 33 x21)) 47))) (let ((?v_73 (not ?v_16)) (?v_47 (<= (+ (- (* (- 45) x36) (* 24 x8)) (* 34 x22)) (- 42))) (?v_126 (< (- (- (* (- 27) x26) (* 11 x37)) (* 13 x7)) 48))) (let ((?v_66 (not ?v_126)) (?v_152 (<= (+ (* (- 9) x17) (* 26 x29)) (- 16)))) (let ((?v_40 (not ?v_152)) (?v_39 (< (+ (- (* (- 32) x7) (* 38 x3)) (* 24 x3)) 29)) (?v_87 (distinct (+ (- (* 13 x12) (* 12 x28)) (* 22 x3)) (- 27))) (?v_103 (distinct (- (- 0 (* 35 x27)) (* 43 x9)) (- 44)))) (let ((?v_90 (not ?v_103)) (?v_52 (<= (+ (- (* 18 x26) (* 31 x23)) (* 41 x8)) (- 43)))) (let ((?v_186 (not ?v_52)) (?v_136 (<= (- (- (* (- 4) x31) (* 19 x4)) (* 13 x13)) (- 6)))) (let ((?v_129 (not ?v_136)) (?v_91 (<= (- (- (* 56 x7) (* 2 x34)) (* 18 x20)) (- 24)))) (let ((?v_24 (not ?v_91)) (?v_112 (= (- (- (* 32 x7) (* 17 x1)) (* 38 x6)) (- 21)))) (let ((?v_93 (not ?v_112)) (?v_123 (<= (- (* 27 x23) (* 42 x4)) (- 51))) (?v_63 (<= (- (+ (* (- 13) x13) (* 48 x34)) (* 38 x21)) (- 8))) (?v_37 (<= (- (- (* 26 x10) (* 21 x19)) (* 46 x36)) (- 2)))) (let ((?v_35 (not ?v_37)) (?v_179 (<= (+ (* (- 28) x21) (* 53 x30) (* 49 x16)) 34))) (let ((?v_100 (not ?v_179)) (?v_166 (or ?v_47 P18)) (?v_197 (not ?v_39)) (?v_111 (< (+ (- (* (- 36) x27) (* 31 x7)) (* 7 x24)) 55)) (?v_85 (not ?v_10)) (?v_142 (not ?v_47)) (?v_99 (distinct (+ (* 26 x37) (* 35 x6) (* 21 x22)) (- 16)))) (let ((?v_113 (not ?v_99)) (?v_138 (<= (+ (* (- 20) x29) (* 18 x7) (* 29 x39)) 4))) (let ((?v_121 (not ?v_138)) (?v_188 (< (+ (- (* (- 44) x20) ?v_83) (* 57 x3)) (- 50)))) (let ((?v_107 (not ?v_188)) (?v_109 (not ?v_87)) (?v_161 (not ?v_31)) (?v_174 (not ?v_105)) (?v_110 (not ?v_63)) (?v_177 (not ?v_111)) (?v_157 (not ?v_122)) (?v_193 (not ?v_76)) (?v_184 (not ?v_123)) (?v_200 (or ?v_171 ?v_39))) (and (and (and (and (and (and (and (and (and (and (and (and (and (and (and (and (and (and (and (and (and (and (and (and (and (and (and (and (and (and (and (and (and (and (and (and (and (and (and (and (and (and (and (and (and (and (and (and (and (and (and (and (and (and (and (and (and (and (and (and (and (and (and (and (and (and (and (and (and (and (and (and (and (and (and (and (and (and (and (and (and (and (and (and (and (and (and (and (and (and (and (and (and (and (and (and (and (and (and (and (and (and (and (and (and (and (and (and (and (and (and (and (and (and (and (and (and (and (and (and (and (and (and (and (and (and (and (and (and (and (and (and (and (and (and (and (and (and (and (and (and (and (and (and (and (and (and (and (and (and (and (and (and (and (and (and (and (and (and (and (and (and (and (and (and (and (and (and (and (and (and (and (and (and (and (and (and (and (and (and (and (and (and (and (and (and (and (and (and (and (and (and (and (and (and (and (and (and (and (and (and (and (and (and (and (and (and (and (and (and (and (and (and (and (and (and (and (and (and (and (and (and (and (and (and (and (and (and (and (and (and (and (and (and (and (and (and (and (and (and (and (and (and (and (and (and (and (and (and (and (and (and (and (and (and (and (and (and (and (and (and (and (and (and (and (and (and (and (and (and (and (and (and (and (and (and (and (and (and (and (and (and (and (and (and (and (and (and (and (and (and (and (and (and (and (and (and (and (and (and (and (and (and (and (and (and (and (and (and (and (and (and (and (and (and (and (and (and (and (and (and (and (and (and (and (and (and (and (and (and (and (and (and (and (and (and (and (and (and (and (and (and (and (and (and (and (and (and (and (and (and (and (and (and (and (and (and (and (and (and (and (and (and (and (and (and (and (and (and (and (and (and (and (and (and (and (and (and (and (and (and (and (and (and (and (and (and (and (and (and (and (and (and (and (and (and (and (and (and (and (and (and (and (and (and (and (and (and (and (and (and (and (and (and (and (and (and (and (and (and (and (and (and (and (and (and (and (and (and (and (and (and (and (and (and (and (and (and (and (and (and (and (and (and (and (and (and (and (and (and (and (and (and (and (and (and (and (and (and (and (and (and (and (and (and (and (and (and (and (and (and (and (and (and (and (and (and (and (and (or (or ?v_153 ?v_8) P21) (or (or P0 P11) ?v_130)) (or (or ?v_0 P20) ?v_33)) (or (or ?v_79 ?v_115) ?v_11)) (or (or ?v_0 (not ?v_140)) ?v_20)) (or (or ?v_108 ?v_43) ?v_1)) (or (or ?v_6 ?v_7) ?v_68)) (or (or ?v_31 ?v_28) ?v_162)) (or (or ?v_61 ?v_3) P21)) (or (or ?v_10 ?v_2) ?v_9)) (or (or ?v_118 P20) ?v_2)) (or (or ?v_80 ?v_3) P10)) (or (or P1 ?v_127) ?v_122)) (or (or ?v_4 ?v_94) ?v_65)) (or (or P14 ?v_5) ?v_53)) (or (or P11 ?v_14) ?v_26)) (or (or ?v_185 P14) ?v_105)) (or (or ?v_198 P28) ?v_169)) (or (or ?v_2 P21) P18)) (or (or ?v_74 ?v_97) ?v_8)) (or (or ?v_12 P4) ?v_23)) (or (or ?v_76 P10) ?v_48)) (or (or ?v_75 ?v_125) ?v_36)) (or (or ?v_73 P6) ?v_47)) (or (or ?v_135 ?v_29) ?v_10)) (or (or ?v_96 P26) ?v_66)) (or (or ?v_13 P38) ?v_57)) (or (or ?v_56 ?v_12) P1)) (or (or ?v_1 ?v_32) ?v_42)) (or (or ?v_13 ?v_14) ?v_40)) (or (or ?v_128 ?v_21) ?v_39)) (or (or ?v_154 ?v_101) ?v_104)) (or (or ?v_16 ?v_87) ?v_90)) (or (or ?v_17 P30) ?v_54)) (or (or ?v_86 ?v_27) P7)) (or (or P2 ?v_18) ?v_2)) (or (or ?v_19 ?v_186) ?v_44)) (or (or ?v_77 ?v_5) ?v_129)) (or (or ?v_0 ?v_20) ?v_25)) (or (or ?v_4 ?v_141) ?v_21)) (or (or ?v_132 ?v_58) ?v_24)) (or (or ?v_45 ?v_23) ?v_24)) (or (or ?v_155 ?v_26) ?v_93)) (or (or ?v_25 ?v_50) P22)) (or (or ?v_116 ?v_41) P21)) (or (or P9 ?v_46) P25)) (or (or ?v_72 P22) ?v_30)) (or (or ?v_25 ?v_123) P17)) (or (or ?v_31 ?v_63) P18)) (or (or P33 ?v_60) ?v_33)) (or (or ?v_156 ?v_33) ?v_23)) (or (or ?v_34 ?v_35) P26)) (or (or P15 ?v_34) ?v_35)) (or (or ?v_36 ?v_37) ?v_38)) (or (or ?v_78 ?v_39) P37)) (or (or ?v_100 P16) ?v_40)) (or (or ?v_41 ?v_42) ?v_150)) (or (or ?v_11 ?v_44) ?v_45)) (or (or ?v_84 ?v_9) ?v_119)) (or ?v_166 ?v_70)) (or (or P36 ?v_48) ?v_25)) (or (or ?v_49 ?v_197) P37)) (or (or P22 ?v_49) ?v_50)) (or (or ?v_28 ?v_51) ?v_52)) (or (or ?v_53 P11) ?v_69)) (or (or ?v_12 ?v_21) ?v_54)) (or (or ?v_55 P13) ?v_56)) (or (or ?v_111 ?v_57) ?v_58)) (or (or ?v_59 ?v_60) ?v_61)) (or (or P23 ?v_10) ?v_181)) (or (or ?v_62 P30) ?v_63)) (or (or ?v_64 ?v_65) ?v_66)) (or (or P23 ?v_37) ?v_19)) (or (or ?v_41 ?v_89) ?v_68)) (or (or ?v_95 ?v_172) ?v_133)) (or (or P37 ?v_71) ?v_41)) (or (or ?v_72 ?v_85) ?v_73)) (or (or ?v_34 P35) P2)) (or (or ?v_142 ?v_45) ?v_16)) (or (or P2 ?v_24) ?v_74)) (or (or ?v_69 ?v_44) ?v_36)) (or (or ?v_75 ?v_37) P27)) (or (or ?v_76 P37) P29)) (or (or ?v_43 ?v_44) P12)) (or (or ?v_159 ?v_120) ?v_7)) (or (or ?v_75 ?v_146) ?v_106)) (or (or ?v_77 ?v_78) ?v_165)) (or (or ?v_27 ?v_113) P30)) (or (or ?v_29 ?v_78) P28)) (or (or P13 ?v_12) ?v_79)) (or (or P8 ?v_55) ?v_170)) (or (or ?v_16 ?v_149) ?v_102)) (or (or ?v_44 P37) ?v_65)) (or (or ?v_121 ?v_80) ?v_81)) (or (or ?v_57 ?v_82) ?v_72)) (or (or P37 ?v_107) ?v_84)) (or (or ?v_49 ?v_124) ?v_85)) (or (or ?v_86 ?v_77) ?v_109)) (or (or ?v_88 ?v_183) P10)) (or (or P6 P21) P12)) (or (or P27 P26) ?v_90)) (or (or ?v_30 ?v_5) P15)) (or (or P22 ?v_48) ?v_137)) (or (or ?v_81 P39) ?v_0)) (or (or ?v_91 ?v_139) P27)) (or (or ?v_131 ?v_92) ?v_93)) (or (or P8 ?v_10) ?v_94)) (or (or ?v_95 ?v_96) ?v_97)) (or (or ?v_98 ?v_58) ?v_99)) (or (or ?v_100 ?v_163) ?v_101)) (or (or ?v_24 ?v_78) ?v_80)) (or (or P39 P9) ?v_95)) (or (or P31 ?v_81) P22)) (or (or ?v_102 ?v_8) ?v_103)) (or (or ?v_100 ?v_19) P36)) (or (or ?v_20 ?v_39) ?v_104)) (or (or ?v_82 ?v_20) ?v_16)) (or (or ?v_95 ?v_161) ?v_167)) (or (or ?v_174 P22) P24)) (or (or ?v_25 P7) ?v_21)) (or (or ?v_144 ?v_71) ?v_106)) (or (or ?v_107 ?v_110) ?v_108)) (or (or ?v_58 ?v_77) ?v_6)) (or (or ?v_87 ?v_5) ?v_2)) (or (or ?v_96 ?v_31) P27)) (or (or ?v_148 P33) ?v_45)) (or (or ?v_65 P16) P32)) (or (or P26 ?v_65) ?v_69)) (or (or ?v_48 ?v_109) ?v_110)) (or (or P28 ?v_47) ?v_39)) (or (or ?v_177 ?v_112) P18)) (or (or ?v_113 ?v_114) ?v_16)) (or (or ?v_113 ?v_77) ?v_151)) (or (or ?v_143 ?v_34) ?v_115)) (or (or ?v_116 ?v_86) ?v_66)) (or (or ?v_36 ?v_111) ?v_117)) (or (or ?v_187 ?v_119) ?v_120)) (or (or ?v_13 ?v_121) P13)) (or (or ?v_112 ?v_71) ?v_157)) (or (or ?v_123 ?v_124) ?v_59)) (or (or ?v_69 ?v_29) ?v_125)) (or (or ?v_120 ?v_145) ?v_147)) (or (or ?v_114 P34) ?v_108)) (or (or P34 ?v_100) ?v_39)) (or (or ?v_52 P35) P18)) (or (or ?v_90 ?v_64) ?v_118)) (or (or ?v_52 ?v_32) ?v_126)) (or (or ?v_48 ?v_5) ?v_127)) (or (or ?v_102 ?v_108) ?v_87)) (or (or ?v_128 ?v_193) ?v_113)) (or (or ?v_69 ?v_171) ?v_184)) (or (or ?v_80 ?v_129) ?v_85)) (or (or ?v_86 ?v_130) P27)) (or (or ?v_131 ?v_132) ?v_133)) (or (or ?v_1 ?v_48) ?v_66)) (or (or ?v_134 ?v_105) ?v_100)) (or (or P9 ?v_70) ?v_135)) (or (or ?v_65 P8) P22)) (or (or P19 ?v_130) ?v_95)) (or (or ?v_121 ?v_136) ?v_137)) (or (or ?v_35 P33) P13)) (or (or ?v_138 ?v_114) ?v_45)) (or (or ?v_2 P27) ?v_139)) (or (or ?v_64 ?v_127) ?v_65)) (or (or ?v_107 P5) ?v_21)) (or (or ?v_140 ?v_141) ?v_4)) (or (or ?v_160 ?v_107) ?v_142)) (or (or ?v_143 ?v_115) P36)) (or (or ?v_144 ?v_145) ?v_127)) (or (or ?v_77 ?v_52) ?v_143)) (or (or ?v_72 ?v_54) P21)) (or (or ?v_70 ?v_48) ?v_146)) (or (or ?v_69 ?v_70) ?v_51)) (or (or P19 ?v_72) ?v_68)) (or (or ?v_147 ?v_45) ?v_146)) (or (or ?v_70 ?v_5) ?v_98)) (or (or P26 ?v_47) ?v_35)) (or (or ?v_148 ?v_63) ?v_168)) (or (or P32 ?v_32) ?v_40)) (or (or ?v_150 ?v_143) ?v_128)) (or (or ?v_158 P33) P30)) (or (or ?v_2 ?v_52) ?v_151)) (or (or ?v_107 P24) ?v_152)) (or (or ?v_11 P34) ?v_192)) (or (or P29 ?v_153) ?v_57)) (or (or ?v_31 ?v_154) ?v_155)) (or (or ?v_94 P25) ?v_142)) (or (or ?v_79 P27) ?v_88)) (or (or ?v_95 ?v_150) ?v_100)) (or (or ?v_68 ?v_82) ?v_91)) (or (or ?v_24 ?v_79) ?v_108)) (or (or ?v_176 ?v_55) ?v_54)) (or (or ?v_117 ?v_37) ?v_71)) (or (or ?v_103 ?v_84) ?v_127)) (or (or ?v_155 ?v_143) ?v_156)) (or (or ?v_46 ?v_41) ?v_85)) (or (or ?v_157 P33) P39)) (or (or ?v_23 ?v_86) ?v_72)) (or (or ?v_4 ?v_154) ?v_78)) (or (or ?v_59 P7) P4)) (or (or P27 ?v_158) ?v_159)) (or (or ?v_123 ?v_79) ?v_104)) (or (or ?v_160 ?v_18) ?v_27)) (or (or P21 ?v_92) ?v_161)) (or ?v_199 ?v_50)) (or (or ?v_162 ?v_34) ?v_24)) (or (or ?v_65 ?v_26) ?v_109)) (or (or ?v_82 ?v_44) P6)) (or (or ?v_146 ?v_155) ?v_117)) (or (or ?v_131 ?v_136) P5)) (or (or ?v_128 ?v_26) P39)) (or (or ?v_58 ?v_151) ?v_163)) (or (or P5 ?v_13) ?v_164)) (or (or ?v_194 ?v_111) ?v_46)) (or (or ?v_39 ?v_16) ?v_64)) (or (or ?v_165 ?v_101) ?v_117)) (or (or ?v_54 ?v_159) ?v_88)) (or ?v_166 ?v_35)) (or (or P25 ?v_167) ?v_50)) (or (or P36 ?v_102) ?v_17)) (or (or ?v_98 ?v_168) ?v_178)) (or (or ?v_156 ?v_109) ?v_169)) (or (or P26 ?v_156) ?v_129)) (or (or ?v_196 ?v_117) ?v_65)) (or (or ?v_5 ?v_175) ?v_1)) (or (or ?v_49 ?v_170) ?v_39)) (or (or P9 ?v_25) ?v_113)) (or (or ?v_165 P14) ?v_169)) (or (or ?v_44 P25) ?v_113)) (or (or P19 ?v_21) ?v_98)) (or ?v_200 ?v_27)) (or (or ?v_121 ?v_60) P1)) (or (or ?v_37 ?v_4) ?v_68)) (or (or ?v_54 P18) ?v_44)) (or (or ?v_38 ?v_127) ?v_123)) (or (or ?v_140 ?v_35) ?v_172)) (or (or ?v_61 ?v_163) ?v_153)) (or (or ?v_84 ?v_42) ?v_14)) (or (or ?v_19 ?v_78) ?v_155)) (or (or ?v_38 ?v_54) ?v_7)) (or (or ?v_173 ?v_174) ?v_150)) (or (or ?v_65 ?v_133) ?v_149)) (or (or P11 ?v_38) ?v_60)) (or (or P7 ?v_174) ?v_137)) (or (or ?v_51 P9) ?v_175)) (or (or ?v_56 ?v_20) ?v_92)) (or (or P12 ?v_176) P2)) (or (or ?v_163 ?v_132) ?v_10)) (or (or ?v_43 ?v_122) P20)) (or (or ?v_57 ?v_91) ?v_69)) (or (or P39 ?v_49) ?v_43)) (or (or ?v_2 P12) ?v_32)) (or (or P1 ?v_182) ?v_98)) (or (or ?v_18 P10) ?v_48)) (or (or ?v_120 ?v_31) ?v_29)) (or (or ?v_73 ?v_145) ?v_124)) (or (or ?v_45 P11) P32)) (or (or ?v_97 ?v_177) ?v_74)) (or (or P37 ?v_178) ?v_16)) (or (or ?v_150 ?v_147) ?v_179)) (or (or ?v_148 ?v_112) ?v_180)) (or (or ?v_141 ?v_50) ?v_169)) (or (or ?v_191 ?v_66) ?v_44)) (or (or ?v_181 ?v_139) ?v_52)) (or (or ?v_136 ?v_11) ?v_152)) (or (or ?v_161 P20) ?v_34)) (or (or ?v_162 P21) ?v_125)) (or (or ?v_189 ?v_107) ?v_132)) (or (or ?v_25 ?v_159) ?v_73)) (or (or ?v_162 ?v_140) ?v_182)) (or (or ?v_33 P22) P6)) (or (or P5 ?v_32) P10)) (or (or ?v_183 ?v_184) ?v_165)) (or (or ?v_62 P4) ?v_121)) (or (or ?v_42 ?v_120) ?v_58)) (or (or ?v_180 ?v_167) ?v_185)) (or (or P31 ?v_112) P10)) (or (or ?v_35 ?v_57) ?v_42)) (or (or ?v_101 P10) ?v_186)) (or (or ?v_8 ?v_119) ?v_80)) (or (or P39 ?v_173) ?v_125)) (or (or ?v_153 P4) ?v_155)) (or (or ?v_25 ?v_62) ?v_76)) (or (or ?v_114 ?v_6) ?v_73)) (or (or ?v_162 ?v_17) ?v_93)) (or (or ?v_96 ?v_5) P14)) (or (or P4 ?v_177) P2)) (or (or ?v_175 ?v_119) P37)) (or (or ?v_75 ?v_42) ?v_187)) (or (or P35 ?v_58) ?v_178)) (or (or ?v_137 ?v_171) ?v_97)) (or (or ?v_3 ?v_181) ?v_8)) (or (or ?v_188 ?v_156) ?v_169)) (or (or ?v_189 ?v_59) ?v_13)) (or (or P1 ?v_38) ?v_2)) (or (or ?v_60 P30) ?v_181)) (or (or ?v_189 ?v_190) ?v_95)) (or (or ?v_44 ?v_150) ?v_147)) (or (or ?v_14 P1) ?v_97)) (or (or P31 ?v_160) ?v_174)) (or (or ?v_3 ?v_93) ?v_37)) (or (or ?v_115 ?v_68) ?v_171)) (or (or ?v_32 ?v_171) ?v_27)) (or (or ?v_140 ?v_191) P36)) (or (or ?v_63 ?v_99) ?v_84)) (or (or ?v_95 ?v_40) ?v_120)) (or (or ?v_176 ?v_100) ?v_39)) (or (or ?v_131 ?v_126) ?v_55)) (or (or ?v_144 P38) ?v_21)) (or (or ?v_87 ?v_186) P30)) (or (or P29 ?v_50) ?v_152)) (or (or P3 ?v_117) ?v_183)) (or (or ?v_106 ?v_11) ?v_117)) (or (or ?v_99 ?v_41) ?v_62)) (or (or ?v_153 ?v_179) ?v_76)) (or (or ?v_108 ?v_6) ?v_50)) (or (or ?v_161 ?v_75) ?v_27)) (or (or ?v_127 P26) ?v_120)) (or (or ?v_0 ?v_109) P9)) (or (or ?v_130 P4) ?v_132)) (or (or ?v_81 (not ?v_175)) ?v_148)) (or (or ?v_170 ?v_35) ?v_191)) (or (or P5 P28) ?v_160)) (or (or ?v_59 ?v_50) ?v_185)) (or (or ?v_148 P23) ?v_144)) (or (or ?v_89 ?v_192) ?v_35)) (or (or ?v_134 ?v_173) ?v_107)) (or (or ?v_85 ?v_17) ?v_193)) (or (or ?v_82 ?v_143) ?v_64)) (or (or ?v_86 ?v_100) ?v_111)) (or (or P27 ?v_194) P15)) (or (or ?v_17 ?v_65) ?v_88)) (or (or ?v_146 ?v_121) P8)) (or (or ?v_150 ?v_102) ?v_26)) (or (or ?v_142 ?v_157) ?v_49)) (or (or ?v_0 ?v_103) ?v_70)) (or (or ?v_180 ?v_23) ?v_42)) (or (or ?v_56 ?v_112) ?v_126)) (or (or P18 ?v_99) ?v_120)) (or (or ?v_89 ?v_24) ?v_11)) (or (or P38 ?v_120) ?v_130)) (or (or P31 ?v_103) ?v_187)) (or (or ?v_26 ?v_162) ?v_40)) (or (or ?v_163 ?v_180) P11)) (or (or ?v_38 P14) ?v_30)) (or (or ?v_161 ?v_26) ?v_183)) (or (or ?v_54 ?v_47) ?v_89)) (or (or ?v_123 P35) ?v_36)) (or (or ?v_179 P5) ?v_109)) (or (or ?v_188 ?v_76) ?v_14)) (or (or ?v_195 ?v_0) ?v_188)) (or (or ?v_157 ?v_2) ?v_79)) (or (or P0 P20) P32)) (or (or ?v_156 ?v_32) ?v_10)) (or (or ?v_115 P23) ?v_10)) (or (or ?v_124 P32) P7)) (or (or ?v_90 ?v_124) ?v_196)) (or (or ?v_130 ?v_104) ?v_90)) (or (or ?v_117 ?v_146) P30)) (or (or ?v_47 ?v_137) P13)) (or (or ?v_140 ?v_49) ?v_133)) (or (or P18 ?v_149) ?v_94)) (or (or ?v_102 ?v_149) ?v_82)) (or (or ?v_52 P14) ?v_179)) (or (or ?v_109 ?v_96) ?v_126)) (or (or ?v_202 ?v_124) ?v_138)) (or (or ?v_18 ?v_152) ?v_29)) (or (or ?v_181 ?v_105) ?v_7)) (or (or ?v_13 P6) ?v_101)) (or (or ?v_0 ?v_23) ?v_155)) (or (or ?v_174 ?v_66) ?v_173)) (or (or ?v_31 P3) ?v_175)) (or (or ?v_70 P37) ?v_196)) (or (or ?v_37 ?v_76) ?v_180)) (or (or ?v_55 ?v_108) ?v_147)) (or (or ?v_26 P30) ?v_65)) (or (or ?v_128 ?v_59) ?v_63)) (or (or ?v_197 ?v_181) ?v_8)) (or (or ?v_20 ?v_173) P29)) (or (or ?v_34 P9) ?v_2)) (or (or ?v_53 ?v_56) P36)) (or (or ?v_19 ?v_82) ?v_17)) (or (or ?v_25 ?v_96) ?v_188)) (or (or ?v_50 P33) P38)) (or (or ?v_51 ?v_173) ?v_183)) (or (or P4 P37) ?v_72)) (or (or ?v_3 ?v_9) ?v_97)) (or (or ?v_190 ?v_119) ?v_52)) (or (or ?v_131 ?v_195) ?v_151)) (or (or P38 ?v_53) ?v_160)) (or (or ?v_40 ?v_10) ?v_89)) (or (or ?v_71 ?v_20) ?v_106)) (or (or ?v_113 ?v_10) ?v_145)) (or (or ?v_33 ?v_192) ?v_163)) (or (or P11 ?v_126) ?v_142)) (or (or ?v_52 ?v_44) ?v_122)) (or (or ?v_58 ?v_198) ?v_194)) (or (or P31 P28) ?v_185)) (or (or ?v_106 ?v_142) ?v_161)) (or (or ?v_28 ?v_19) P8)) (or (or ?v_112 ?v_141) ?v_107)) (or (or ?v_0 P26) ?v_185)) (or (or ?v_34 ?v_141) P0)) (or (or ?v_7 ?v_56) P18)) (or (or P20 ?v_95) ?v_103)) (or (or ?v_165 ?v_95) ?v_148)) (or (or ?v_20 P16) ?v_125)) (or (or P15 ?v_178) ?v_120)) (or (or ?v_54 ?v_16) ?v_23)) (or (or ?v_143 ?v_76) ?v_182)) (or (or ?v_95 ?v_58) P24)) (or (or (not P1) ?v_172) ?v_167)) (or (or ?v_145 P28) P18)) (or ?v_199 ?v_181)) (or (or P9 P9) P24)) (or (or ?v_183 ?v_52) ?v_31)) (or (or ?v_10 ?v_7) ?v_187)) (or (or P11 ?v_194) P37)) (or (or ?v_180 P1) ?v_170)) (or (or ?v_106 ?v_45) ?v_110)) (or ?v_200 P18)) (or (or ?v_201 ?v_192) ?v_138)) (or (or P3 P3) ?v_116)) (or (or ?v_178 ?v_149) ?v_5)) (or (or ?v_46 ?v_9) P18)) (or (or ?v_85 ?v_64) ?v_14)) (or (or P26 ?v_8) ?v_149)) (or (or P10 ?v_19) ?v_28)) (or (or ?v_76 ?v_156) ?v_145)) (or (or ?v_125 P21) ?v_63)) (or (or ?v_54 P6) ?v_61)) (or (or ?v_131 P9) ?v_144)) (or (or P32 ?v_37) ?v_140)) (or (or P3 ?v_181) ?v_21)) (or (or P8 P29) P22)) (or (or ?v_82 ?v_25) P15)) (or (or ?v_177 ?v_43) ?v_3)) (or (or ?v_20 ?v_184) ?v_132)) (or (or ?v_202 ?v_13) ?v_81)) (or (or ?v_129 ?v_202) ?v_45)) (or (or ?v_106 P4) ?v_0)) (or (or P4 ?v_110) ?v_91)) (or (or ?v_91 ?v_0) ?v_94)) (or (or ?v_12 ?v_202) ?v_149)) (or (or ?v_93 ?v_184) P16)) (or (or ?v_192 ?v_119) ?v_6)) (or (or P36 P9) ?v_114)) (or (or ?v_81 ?v_146) ?v_5)) (or (or ?v_28 ?v_3) P36)) (or (or ?v_28 ?v_144) ?v_120)) (or (or ?v_121 ?v_16) ?v_82)) (or (or ?v_92 ?v_0) ?v_175)) (or (or ?v_38 ?v_148) ?v_122)) (or (or ?v_104 ?v_66) P2)) (or (or ?v_133 ?v_141) ?v_190)) (or (or P19 ?v_100) P8)) (or (or ?v_172 ?v_174) ?v_26)) (or (or P12 ?v_150) ?v_202)) (or (or ?v_8 ?v_177) ?v_110)) (or (or ?v_26 ?v_126) ?v_108)) (or (or ?v_143 ?v_195) P28)) (or (or P11 ?v_11) ?v_33)) (or (or ?v_71 ?v_102) ?v_101)) (or (or ?v_108 P19) ?v_14)) (or (or ?v_142 P20) ?v_73)) (or (or ?v_64 ?v_101) ?v_186)) (or (or ?v_143 ?v_190) ?v_4)) (or (or P32 P1) ?v_188)) (or (or P38 ?v_72) ?v_60)) (or (or ?v_39 ?v_73) ?v_123)) (or (or ?v_68 ?v_112) ?v_111)) (or (or P38 ?v_189) ?v_34)) (or (or ?v_197 ?v_57) ?v_174)) (or (or ?v_10 ?v_32) ?v_46)) (or (or ?v_86 ?v_164) ?v_4)) (or (or ?v_123 ?v_99) ?v_172)) (or (or ?v_120 ?v_180) ?v_131)) (or (or ?v_12 P27) ?v_179)) (or (or ?v_4 ?v_37) ?v_57)) (or (or ?v_69 P31) ?v_94)))))))))))))))))))))))))))))))
(check-sat)
(exit)
